NAME: a_few_states input file
Type: TSP
COMMENT: a_few_states
DIMENSION: 10
EDGE_WEIGHT_TYPE: EXPLICIT
EDGE_WEIGHT_FORMAT: FULL_MATRIX
EDGE_WEIGHT_SECTION 
0 886 2554 2447 2177 2082 443 1699 1883 1482 
886 0 1688 1566 1332 1210 639 814 999 609 
2554 1688 0 234 1014 845 2192 898 717 1079 
2447 1566 234 0 780 618 2113 754 568 966 
2177 1332 1014 780 0 228 1969 713 654 929 
2082 1210 845 618 228 0 1835 508 428 739 
443 639 2192 2113 1969 1835 0 1392 1567 1156 
1699 814 898 754 713 508 1392 0 186 242 
1883 999 717 568 654 428 1567 186 0 411 
1482 609 1079 966 929 739 1156 242 411 0 
